
(set-logic ALL) 

(declare-datatype MyList ((Nil) (Cons (head Real) (tail MyList)) )) 
(declare-fun l0 () MyList) 
(declare-fun l1 () MyList) 
(declare-fun l2 () MyList) 
(declare-fun l3 () MyList) 
(declare-fun i0 () Real) 
(declare-fun i1 () Real) 
(assert (is-Cons l3) )
(assert (is-Cons l2) )
(assert (= l3 l1) )
(assert (not (= l2 Nil)) )
(assert (and (is-Cons l3) (= l0 Nil)) )
(assert (or (= l1 Nil) (= l0 Nil) (= l1 Nil) (= l1 l2)) )
(assert (is-Nil l0) )
(assert (= l2 Nil) )
(check-sat)
